#######################



#######################
Set parameter TimeLimit to value 500
Set parameter SoftMemLimit to value 125
Set parameter MIPFocus to value 2
Set parameter LogFile to value 1202-MIPFocus2-Presolve1-TimeLimit500-k16x240-3.log
Set parameter Presolve to value 1
Set parameter Seed to value 13
Using license file /opt/gurobi/gurobi.lic

Gurobi Optimizer version 12.0.2 build v12.0.2rc0 (linux64 - "Ubuntu 22.04.4 LTS")
Copyright (c) 2025, Gurobi Optimization, LLC

Read MPS format model from file /miplib2010/k16x240.mps.bz2
Reading time = 0.00 seconds
k16x240: 256 rows, 480 columns, 960 nonzeros

Using Gurobi shared library /nfs/shared/static-builds/gurobi1202

CPU model: Intel(R) Xeon(R) E-2388G CPU @ 3.20GHz, instruction set [SSE2|AVX|AVX2|AVX512]
Thread count: 8 physical cores, 16 logical processors, using up to 16 threads

Non-default parameters:
TimeLimit  500
SoftMemLimit  125
MIPFocus  2
Presolve  1
Seed  13

Optimize a model with 256 rows, 480 columns and 960 nonzeros
Model fingerprint: 0x4e80885f
Variable types: 240 continuous, 240 integer (240 binary)
Coefficient statistics:
  Matrix range     [1e+00, 1e+03]
  Objective range  [1e+00, 1e+03]
  Bounds range     [1e+00, 1e+03]
  RHS range        [4e+00, 4e+02]
Found heuristic solution: objective 25767.000000
Presolve time: 0.00s
Presolved: 256 rows, 480 columns, 960 nonzeros
Variable types: 240 continuous, 240 integer (240 binary)

Root relaxation: objective 2.769838e+03, 51 iterations, 0.00 seconds (0.00 work units)

    Nodes    |    Current Node    |     Objective Bounds      |     Work
 Expl Unexpl |  Obj  Depth IntInf | Incumbent    BestBd   Gap | It/Node Time

     0     0 2769.83800    0   14 25767.0000 2769.83800  89.3%     -    0s
H    0     0                    11359.000000 2769.83800  75.6%     -    0s
H    0     0                    11195.000000 2769.83800  75.3%     -    0s
H    0     0                    11088.000000 2769.83800  75.0%     -    0s
H    0     0                    11074.000000 8116.87580  26.7%     -    0s
     0     0 8116.87580    0   26 11074.0000 8116.87580  26.7%     -    0s
H    0     0                    10916.000000 8161.01413  25.2%     -    0s
H    0     0                    10896.000000 8588.30479  21.2%     -    0s
     0     0 8588.30479    0   25 10896.0000 8588.30479  21.2%     -    0s
H    0     0                    10806.000000 8613.92228  20.3%     -    0s
     0     0 8613.92228    0   22 10806.0000 8613.92228  20.3%     -    0s
     0     0 8718.84268    0   23 10806.0000 8718.84268  19.3%     -    0s
H    0     0                    10784.000000 8722.38805  19.1%     -    0s
H    0     0                    10748.000000 8722.38805  18.8%     -    0s
     0     0 8841.21632    0   38 10748.0000 8841.21632  17.7%     -    0s
     0     0 8841.47582    0   38 10748.0000 8841.47582  17.7%     -    0s
     0     0 8971.09543    0   48 10748.0000 8971.09543  16.5%     -    0s
     0     0 8992.79601    0   46 10748.0000 8992.79601  16.3%     -    0s
     0     0 9000.37514    0   44 10748.0000 9000.37514  16.3%     -    0s
     0     0 9071.65424    0   27 10748.0000 9071.65424  15.6%     -    0s
     0     0 9084.45570    0   31 10748.0000 9084.45570  15.5%     -    0s
     0     0 9129.66981    0   29 10748.0000 9129.66981  15.1%     -    0s
     0     0 9131.92892    0   29 10748.0000 9131.92892  15.0%     -    0s
     0     2 9131.92892    0   29 10748.0000 9131.92892  15.0%     -    0s
H   63    80                    10681.000000 9167.77997  14.2%  37.5    0s
H  199   232                    10678.000000 9190.39691  13.9%  27.4    0s
H  967   799                    10674.000000 9309.14004  12.8%  19.7    0s
 35143 11493 10258.5402   29   28 10674.0000 10068.6223  5.67%  24.5    5s
 81915 15143 10583.2272   34   22 10674.0000 10290.6417  3.59%  25.0   10s

Cutting planes:
  Lift-and-project: 14
  Cover: 85
  Implied bound: 43
  Dual implied bound: 4
  MIR: 153
  Mixing: 1
  Flow cover: 265
  Flow path: 36
  Inf proof: 4
  Zero half: 6
  Network: 47
  Relax-and-lift: 1

Explored 130701 nodes (3044828 simplex iterations) in 14.37 seconds (19.42 work units)
Thread count was 16 (of 16 available processors)

Solution count 10: 10674 10678 10681 ... 11088

Optimal solution found (tolerance 1.00e-04)
Best objective 1.067400000000e+04, best bound 1.067400000000e+04, gap 0.0000%
